p cnf 10 50
-7 -3 4 0
-5 -4 1 0
-6 -6 -3 0
1 3 7 0
-7 5 6 0
-7 -5 2 0
-10 -2 6 0
-8 2 9 0
-9 -2 5 0
-10 -9 8 0
-1 5 10 0
-1 6 10 0
-7 7 10 0
-9 -5 2 0
3 5 10 0
-9 -2 6 0
-9 -8 1 0
-3 -3 -1 0
-9 -1 9 0
-9 -5 8 0
-8 -5 4 0
-8 -3 7 0
-8 -6 -6 0
-9 -8 5 0
-6 -1 5 0
-5 -3 7 0
-6 -5 -3 0
-10 -1 1 0
2 5 8 0
-9 -9 3 0
-3 1 10 0
-9 7 9 0
-7 4 10 0
-10 -2 -1 0
-10 -10 -8 0
-2 -2 3 0
-1 -1 2 0
-6 -3 -3 0
-8 -8 -2 0
-6 -4 10 0
-3 5 7 0
1 7 10 0
-2 3 10 0
-10 -8 3 0
-10 -6 -3 0
5 6 7 0
-9 -4 8 0
-4 3 4 0
-9 -2 10 0
-9 -5 7 0
